&CONTROL
  calculation = 'scf'
  restart_mode='from_scratch',
  prefix='aluminum',
  tstress = .true.
  tprnfor = .true.
  pseudo_dir = './',
  outdir = './qe-out/'
/
&SYSTEM
  ibrav= 2, 
  celldm(1)= 9.0, 
  nat=  1, 
  ntyp= 1,
  ecutwfc = 15.0,
  occupations = 'smearing',
  smearing = 'methfessel-paxton',
  degauss = 0.05, 
/
&ELECTRONS
  diagonalization='david'
  mixing_mode = 'plain'
  conv_thr =  1.0d-8
/
ATOMIC_SPECIES
 Al  26.982  Al.pbe-n-van.UPF
ATOMIC_POSITIONS alat
 Al 0.00 0.00 0.00
K_POINTS {automatic}
  4 4 4  0 0 0
