&CONTROL
  calculation = 'scf',
  restart_mode = 'from_scratch',
  prefix = 'aluminum_lda_eos_scale-0p9537_volume-0099p5027-bohr3',
  tstress = .true.,
  tprnfor = .true.,
  pseudo_dir = '/Users/zhy/Aluminum-from-First-Principles/',
  outdir = '/Users/zhy/Aluminum-from-First-Principles/lda-eos-runs/scale-0.9537_volume-0099.5027-bohr3/qe-out/'
/
&SYSTEM
  ibrav = 2,
  celldm(1) = 7.3558277107,
  nat = 1,
  ntyp = 1,
  input_dft = 'PZ',
  ecutwfc = 40.000000,
  ecutrho = 160.000000,
  occupations = 'smearing',
  smearing = 'methfessel-paxton',
  degauss = 0.010000
/
&ELECTRONS
  diagonalization = 'david',
  mixing_mode = 'plain',
  conv_thr = 1.0d-8
/
ATOMIC_SPECIES
  Al  26.982  Al.pz-vbc.UPF
ATOMIC_POSITIONS alat
  Al  0.00  0.00  0.00
K_POINTS automatic
  20 20 20  0 0 0
